c FILE: i080-331

c SOURCE: From steinlib

c DESCRIPTION: Steinlib instance with 80 nodes and 160 edges.

p edge 80 160
e 1 6
e 1 9
e 1 13
e 1 54
e 1 57
e 1 62
e 1 66
e 1 70
e 1 76
e 1 78
e 2 33
e 2 38
e 2 44
e 2 63
e 2 71
e 3 65
e 3 67
e 4 23
e 4 43
e 4 67
e 5 7
e 5 10
e 5 29
e 5 31
e 5 74
e 6 34
e 6 37
e 6 41
e 6 47
e 6 48
e 6 79
e 7 47
e 7 50
e 7 52
e 8 38
e 8 43
e 8 70
e 9 24
e 9 25
e 9 29
e 9 41
e 10 22
e 10 39
e 10 71
e 10 77
e 11 31
e 11 73
e 12 13
e 12 28
e 12 41
e 12 56
e 12 61
e 13 23
e 14 19
e 14 70
e 14 79
e 15 16
e 15 21
e 15 69
e 15 72
e 15 74
e 16 39
e 17 22
e 17 36
e 17 43
e 17 48
e 17 55
e 17 58
e 17 61
e 18 43
e 18 66
e 18 75
e 19 24
e 19 39
e 19 42
e 19 50
e 19 53
e 19 61
e 20 26
e 20 34
e 20 47
e 21 25
e 21 40
e 21 51
e 21 54
e 21 66
e 22 38
e 23 40
e 23 49
e 23 58
e 25 26
e 25 53
e 25 61
e 26 47
e 27 38
e 27 48
e 27 79
e 27 80
e 28 40
e 28 44
e 28 66
e 29 33
e 29 34
e 29 43
e 29 60
e 29 67
e 30 55
e 31 41
e 31 44
e 32 55
e 32 77
e 32 79
e 33 40
e 34 74
e 35 38
e 35 39
e 35 71
e 36 70
e 37 50
e 37 54
e 37 59
e 38 66
e 38 74
e 39 66
e 39 74
e 39 79
e 40 64
e 42 58
e 42 75
e 44 49
e 44 57
e 44 58
e 45 53
e 45 55
e 46 62
e 48 52
e 48 67
e 49 75
e 49 78
e 50 54
e 50 59
e 51 52
e 51 60
e 52 61
e 54 56
e 54 59
e 55 69
e 55 76
e 56 62
e 58 65
e 60 68
e 60 77
e 62 69
e 64 68
e 65 71
e 68 72
e 71 73
e 71 78
e 72 75
e 74 79
